numScenes = 19;
numActors = 8;
ia = [|
0,0,1,0,0,1,0,0,1,0,0,0,0,0,0,1,0,1,0|
0,0,0,1,1,0,0,0,1,0,0,0,0,1,0,0,1,1,0|
0,0,0,0,0,0,0,0,0,0,0,0,0,1,1,1,0,1,0|
1,0,0,0,0,0,1,0,0,0,1,0,0,0,1,1,0,1,1|
0,0,1,0,0,0,0,1,0,1,0,0,1,0,1,1,1,0,0|
1,1,1,0,1,1,1,0,1,1,1,1,0,0,0,1,0,1,0|
1,0,0,1,0,0,0,0,0,0,1,0,0,1,0,1,0,0,0|
0,0,1,1,0,1,0,1,1,0,1,1,0,0,0,0,0,0,0|];
c = [10,4,5,5,5,40,4,20];
d = [1,2,1,1,1,1,1,1,1,1,1,1,1,1,1,1,1,1,1];

%%  min objective:        1031 (proven)
slackedCost = 1080;

% --------------------------------- 
earliestPrefs = 5;
actorEarl = [1,2,4,5,6];
durEarl =   [7,5,2,5,6];
scEarl =    [3,4,5,6,7];

latestPrefs = 6;
actorLate = [2,3,5,   6,  7,  8];
durLate =   [9,5,10,  4,  3,  4];
scLate =    [8,9,10, 11, 12, 13];

adversarials = 7;
actorAdv =     [1,  1, 2, 2, 3, 3, 3];
adversaryAdv = [2,  4, 3, 6, 7, 4, 5];
scAdv =        [14,15,16,17,18,19,20];

nScs = 20; 
crTempEdges = [| 
  2, 1  | % 1 and 2 are reserved canonically 
  4, 8  | % actor two wants to leave earlier more than starting late
  16, 8 | 17, 8 |
  3, 14  | % actor one prefers not meeting his adversary to starting late
  14,15 | % actor one prefers not meeting 4 to not meeting 2
  18, 19 | 20, 19 | 19, 9 | % little relationship for actor 3' disliking
  10, 6 | 11, 7 |
  % top level constraint for each actor:
  % 1: 15, 2: 8, 3: 9, 4: 5, 5: 6, 6: 7, 7: 12, 8: 13
  
  5, 1  | 8, 1 | 9, 1 | 6, 1 | 15, 1 | 7,1 | 12, 1 | 13, 1 |
  5, 2  | 8, 2 | 9, 1 | 6, 2 | 15, 2 | 7,2 | 12, 2 | 13, 2 
|]; % earliest is more important 
